MergedCell
   1.00000000000000     
    20.00000000000     0.00000000000     0.00000000000
     0.00000000000    15.00000000000     0.00000000000
     0.00000000000     0.00000000000    42.59260000000
  C   F   S   H   O 
    36     4     8    16     4
Selective
Direct
     0.46576000000     0.49972333333     0.22688213446  T T T
     0.49084000000     0.50140333333     0.28400473322  T T T
     0.45254500000     0.49876333333     0.19415344449  T T T
     0.53424000000     0.50028333333     0.23320952466  T T T
     0.54745500000     0.50124333333     0.26593586680  T T T
     0.50916000000     0.49859666667     0.17608692590  T T T
     0.50412500000     0.49945333333     0.31804820556  T T T
     0.45149500000     0.49918666667     0.33831698465  T T T
     0.54277000000     0.50014666667     0.37434671750  T T T
     0.47164000000     0.49956666667     0.37066767467  T T T
     0.57191500000     0.50058666667     0.40428149490  T T T
     0.42808500000     0.49941333333     0.39674497448  T T T
     0.52835500000     0.50042666667     0.43035644689  T T T
     0.45723000000     0.49985333333     0.42667975188  T T T
     0.54850500000     0.50081333333     0.46270713693  T T T
     0.68837000000     0.50137333333     0.38800636730  T T T
     0.31163000000     0.49862666667     0.41301775425  T T T
     0.49587500000     0.50054666667     0.48297826383  T T T
     0.50412500000     0.49945333333     0.51702173617  T T T
     0.45149500000     0.49918666667     0.53729051525  T T T
     0.54277000000     0.50014666667     0.57332024812  T T T
     0.47164000000     0.49956666667     0.56964120528  T T T
     0.57191500000     0.50058666667     0.60325502552  T T T
     0.42808500000     0.49941333333     0.59571850509  T T T
     0.52835500000     0.50042666667     0.62932997751  T T T
     0.45723000000     0.49985333333     0.62565328249  T T T
     0.54850500000     0.50081333333     0.66168066753  T T T
     0.68837000000     0.50137333333     0.58697989792  T T T
     0.31163000000     0.49862666667     0.61199128487  T T T
     0.49587500000     0.50054666667     0.68195179444  T T T
     0.46576000000     0.49972333333     0.76679047534  T T T
     0.49084000000     0.50140333333     0.82391307410  T T T
     0.45254500000     0.49876333333     0.73406178538  T T T
     0.53424000000     0.50028333333     0.77311786554  T T T
     0.54745500000     0.50124333333     0.80584420768  T T T
     0.50916000000     0.49859666667     0.71599526678  T T T
     0.38979500000     0.49808333333     0.18228283786  T T T
     0.61020500000     0.50191666667     0.27780882125  T T T
     0.38979500000     0.49808333333     0.72219117875  T T T
     0.61020500000     0.50191666667     0.81771716214  T T T
     0.41829500000     0.50037666667     0.26115804153  T T T
     0.58170500000     0.49963000000     0.19893361758  T T T
     0.58137000000     0.50018666667     0.33688950663  T T T
     0.41862500000     0.49981333333     0.46413696276  T T T
     0.58137000000     0.50018666667     0.53586303724  T T T
     0.41862500000     0.49981333333     0.66311049337  T T T
     0.41829500000     0.50037666667     0.80106638242  T T T
     0.58170500000     0.49963000000     0.73884195846  T T T
     0.39938000000     0.49872666667     0.33105281199  T T T
     0.60062000000     0.50126666667     0.46997130957  T T T
     0.73646000000     0.50183333333     0.40038175646  T T T
     0.68540000000     0.44103333333     0.37337002202  T T T
     0.68487500000     0.56146000000     0.37326436986  T T T
     0.31459500000     0.55896666667     0.42765644737  T T T
     0.26354000000     0.49816666667     0.40064471293  T T T
     0.31512500000     0.43854000000     0.42775975169  T T T
     0.39938000000     0.49872666667     0.53002634260  T T T
     0.60062000000     0.50126666667     0.66894484018  T T T
     0.73646000000     0.50183333333     0.59935528707  T T T
     0.68540000000     0.44103333333     0.57234355264  T T T
     0.68487500000     0.56146000000     0.57223790048  T T T
     0.31459500000     0.55896666667     0.62662997798  T T T
     0.26354000000     0.49816666667     0.59961824355  T T T
     0.31512500000     0.43854000000     0.62673328231  T T T
     0.63862500000     0.50116000000     0.41210445007  T T T
     0.36137500000     0.49884000000     0.38892201931  T T T
     0.63862500000     0.50116000000     0.61107798068  T T T
     0.36137500000     0.49884000000     0.58789554993  T T T
