MergedCell
   1.00000000000000     
    20.00000000000     0.00000000000     0.00000000000
     0.00000000000    15.00000000000     0.00000000000
     0.00000000000     0.00000000000    42.59259999981
  C   F   S   H   O 
    36     4     8    16     4
Selective
Direct
     0.46576000000     0.49972333333     0.22688213446  T T T
     0.49084000000     0.50140333333     0.28400473322  T T T
     0.45254500000     0.49876333333     0.19415344449  T T T
     0.53424000000     0.50028333333     0.23320952466  T T T
     0.54745500000     0.50124333333     0.26593586679  T T T
     0.50916000000     0.49859666667     0.17608692590  T T T
     0.50412500000     0.49945333333     0.31804820555  T T T
     0.45149500000     0.49918666667     0.33831698464  T T T
     0.54277000000     0.50014666667     0.37434671750  T T T
     0.47164000000     0.49956666667     0.37066767467  T T T
     0.57191500000     0.50058666667     0.40428149491  T T T
     0.42808500000     0.49941333333     0.39674497448  T T T
     0.52835500000     0.50042666667     0.43035644689  T T T
     0.45723000000     0.49985333333     0.42667975189  T T T
     0.54850500000     0.50081333333     0.46270713692  T T T
     0.68837000000     0.50137333333     0.38800636730  T T T
     0.31163000000     0.49862666667     0.41301775426  T T T
     0.49587500000     0.50054666667     0.48297826383  T T T
     0.46576000000     0.49972333333     0.56781694473  T T T
     0.49084000000     0.50140333333     0.62493954349  T T T
     0.45254500000     0.49876333333     0.53508825477  T T T
     0.53424000000     0.50028333333     0.57414433493  T T T
     0.54745500000     0.50124333333     0.60687067707  T T T
     0.50916000000     0.49859666667     0.51702173617  T T T
     0.50412500000     0.49945333333     0.65898301583  T T T
     0.45149500000     0.49918666667     0.67925179491  T T T
     0.54277000000     0.50014666667     0.71528152778  T T T
     0.47164000000     0.49956666667     0.71160248494  T T T
     0.57191500000     0.50058666667     0.74521630518  T T T
     0.42808500000     0.49941333333     0.73767978475  T T T
     0.52835500000     0.50042666667     0.77129125717  T T T
     0.45723000000     0.49985333333     0.76761456215  T T T
     0.54850500000     0.50081333333     0.80364194719  T T T
     0.68837000000     0.50137333333     0.72894117757  T T T
     0.31163000000     0.49862666667     0.75395256453  T T T
     0.49587500000     0.50054666667     0.82391307410  T T T
     0.38979500000     0.49808333333     0.18228283786  T T T
     0.61020500000     0.50191666667     0.27780882125  T T T
     0.38979500000     0.49808333333     0.52321764814  T T T
     0.61020500000     0.50191666667     0.61874363153  T T T
     0.41829500000     0.50037666667     0.26115804153  T T T
     0.58170500000     0.49963000000     0.19893361757  T T T
     0.58137000000     0.50018666667     0.33688950663  T T T
     0.41862500000     0.49981333333     0.46413696276  T T T
     0.41829500000     0.50037666667     0.60209285181  T T T
     0.58170500000     0.49963000000     0.53986842784  T T T
     0.58137000000     0.50018666667     0.67782431690  T T T
     0.41862500000     0.49981333333     0.80507177303  T T T
     0.39938000000     0.49872666667     0.33105281199  T T T
     0.60062000000     0.50126666667     0.46997130957  T T T
     0.73646000000     0.50183333333     0.40038175645  T T T
     0.68540000000     0.44103333333     0.37337002202  T T T
     0.68487500000     0.56146000000     0.37326436986  T T T
     0.31459500000     0.55896666667     0.42765644736  T T T
     0.26354000000     0.49816666667     0.40064471293  T T T
     0.31512500000     0.43854000000     0.42775975169  T T T
     0.39938000000     0.49872666667     0.67198762226  T T T
     0.60062000000     0.50126666667     0.81090611984  T T T
     0.73646000000     0.50183333333     0.74131656673  T T T
     0.68540000000     0.44103333333     0.71430483229  T T T
     0.68487500000     0.56146000000     0.71419918014  T T T
     0.31459500000     0.55896666667     0.76859125764  T T T
     0.26354000000     0.49816666667     0.74157952320  T T T
     0.31512500000     0.43854000000     0.76869456197  T T T
     0.63862500000     0.50116000000     0.41210445007  T T T
     0.36137500000     0.49884000000     0.38892201931  T T T
     0.63862500000     0.50116000000     0.75303926034  T T T
     0.36137500000     0.49884000000     0.72985682959  T T T
