C H O S
1.0
 20.000000000000   0.000000000000   0.000000000000
  0.000000000000  15.000000000000   0.000000000000
  0.000000000000   0.000000000000  20.000000000000
C H O S
 12   8   2   2
Selective dynamics
Direct
  0.504125000000   0.499453333333   0.324380000000  T T T
  0.451495000000   0.499186666666   0.367545000001  T T T
  0.542770000000   0.500146666667   0.444275000000  T T T
  0.471640000000   0.499566666667   0.436440000000  T T T
  0.571914999999   0.500586666666   0.508025000001  T T T
  0.428085000001   0.499413333334   0.491975000000  T T T
  0.528355000000   0.500426666667   0.563555000000  T T T
  0.457230000000   0.499853333333   0.555725000000  T T T
  0.548505000000   0.500813333334   0.632450000000  T T T
  0.688370000000   0.501373333334   0.473365000000  T T T
  0.311630000000   0.498626666666   0.526630000001  T T T
  0.495875000000   0.500546666667   0.675620000000  T T T
  0.399380000000   0.498726666667   0.352075000001  T T T
  0.600620000000   0.501266666667   0.647920000001  T T T
  0.736460000000   0.501833333333   0.499720000001  T T T
  0.685400000000   0.441033333333   0.442195000001  T T T
  0.684875000000   0.561460000000   0.441970000000  T T T
  0.314594999999   0.558966666667   0.557805000001  T T T
  0.263540000000   0.498166666667   0.500280000000  T T T
  0.315125000000   0.438540000000   0.558025000001  T T T
  0.638625000000   0.501160000000   0.524685000001  T T T
  0.361375000000   0.498840000000   0.475315000001  T T T
  0.581370000001   0.500186666666   0.364505000000  T T T
  0.418625000000   0.499813333334   0.635495000000  T T T
