C F S
1.0
 20.000000000000   0.000000000000   0.000000000000
  0.000000000000  15.000000000000   0.000000000000
  0.000000000000   0.000000000000  20.000000000000
C F S
  6   2   2
Selective dynamics
Direct
  0.465760000000   0.499723333333   0.493262499999  T T T
  0.490839999999   0.501403333333   0.614912500000  T T T
  0.452545000000   0.498763333333   0.423562500000  T T T
  0.534240000000   0.500283333333   0.506737499999  T T T
  0.547455000000   0.501243333333   0.576432500000  T T T
  0.509160000001   0.498596666667   0.385087500000  T T T
  0.389795000000   0.498083333333   0.398282500000  T T T
  0.610205000000   0.501916666667   0.601717500000  T T T
  0.418295000000   0.500376666667   0.566257500000  T T T
  0.581705000000   0.499629999999   0.433742500000  T T T
